c User generated cnf file
p cnf 15 26
-6 4 2 0 
6 -2 9 0 
9 9 -2 0 
12 6 -9 0 
-1 3 4 0 
13 -1 4 0 
-3 7 3 0 
12 -1 10 0 
3 -11 13 0 
11 -9 12 0 
13 1 -8 0 
-15 12 3 0 
-9 4 8 0 
5 -13 14 0 
6 -8 2 0 
-8 11 4 0 
11 5 -12 0 
13 -14 10 0 
5 -4 3 0 
-13 1 5 0 
12 2 -13 0 
9 9 -14 0 
-8 1 4 0 
-2 4 2 0 
-4 12 6 0 
13 -7 8 0 
